N=30;
start=[|
15, 4, 20, 0, 14, 10, 23, 0, 0, 7, 0, 8, 0, 0, 26, 0, 0, 21, 3, 0, 0, 11, 17, 13, 9, 0, 12, 0, 6, 16|
0, 11, 29, 0, 0, 0, 0, 0, 17, 0, 15, 27, 24, 18, 25, 4, 0, 0, 0, 9, 23, 19, 0, 0, 3, 5, 16, 0, 26, 6|
29, 0, 0, 0, 8, 0, 0, 5, 0, 3, 0, 24, 20, 9, 0, 17, 0, 0, 18, 2, 11, 0, 14, 21, 0, 25, 0, 28, 16, 30|
6, 5, 22, 20, 9, 29, 0, 30, 19, 0, 0, 25, 0, 15, 0, 0, 23, 14, 0, 0, 0, 0, 0, 1, 16, 13, 2, 26, 0, 0|
0, 0, 27, 0, 24, 6, 7, 29, 28, 0, 1, 0, 3, 0, 16, 0, 13, 0, 2, 26, 15, 20, 4, 0, 10, 0, 0, 0, 17, 0|
0, 10, 0, 9, 12, 2, 0, 0, 15, 24, 17, 0, 0, 4, 0, 28, 0, 20, 0, 0, 30, 0, 3, 0, 27, 29, 23, 11, 0, 8|
7, 20, 12, 0, 0, 13, 4, 18, 29, 22, 16, 0, 2, 0, 0, 0, 5, 0, 0, 23, 8, 21, 0, 19, 26, 0, 0, 0, 25, 11|
0, 0, 0, 13, 0, 0, 22, 0, 9, 27, 25, 4, 14, 0, 30, 5, 24, 16, 0, 28, 0, 10, 11, 0, 19, 0, 8, 0, 1, 0|
24, 30, 13, 26, 25, 0, 0, 4, 27, 5, 21, 0, 0, 0, 0, 3, 0, 0, 0, 0, 6, 28, 20, 16, 0, 22, 0, 29, 19, 7|
0, 0, 1, 21, 0, 0, 6, 24, 14, 28, 3, 30, 22, 2, 4, 26, 0, 0, 27, 19, 0, 0, 7, 0, 0, 0, 0, 0, 5, 15|
5, 0, 0, 12, 26, 0, 9, 0, 3, 0, 0, 0, 0, 21, 0, 0, 17, 0, 7, 13, 4, 0, 29, 25, 8, 0, 11, 27, 14, 20|
27, 0, 16, 0, 11, 0, 0, 12, 0, 0, 14, 0, 0, 20, 8, 0, 0, 0, 30, 24, 26, 0, 13, 5, 4, 1, 18, 0, 22, 19|
10, 0, 17, 0, 2, 0, 0, 0, 5, 21, 0, 28, 26, 0, 7, 0, 14, 9, 0, 30, 0, 18, 1, 4, 13, 16, 0, 8, 20, 0|
17, 13, 19, 0, 0, 25, 11, 2, 8, 0, 0, 22, 0, 3, 27, 0, 1, 30, 0, 20, 0, 14, 10, 6, 0, 0, 15, 16, 0, 0|
30, 23, 0, 0, 13, 0, 0, 20, 10, 15, 0, 7, 16, 17, 0, 0, 12, 1, 21, 6, 0, 0, 0, 29, 14, 0, 9, 25, 0, 0|
0, 26, 14, 4, 7, 20, 0, 22, 6, 0, 28, 0, 12, 0, 3, 21, 2, 27, 0, 10, 0, 8, 0, 0, 0, 24, 17, 0, 0, 13|
0, 0, 0, 0, 0, 8, 0, 27, 0, 19, 13, 0, 9, 1, 29, 12, 0, 7, 16, 0, 0, 2, 22, 28, 5, 11, 20, 18, 0, 10|
8, 18, 0, 30, 27, 4, 19, 17, 0, 25, 0, 29, 11, 23, 5, 16, 0, 26, 0, 0, 0, 13, 21, 12, 0, 0, 0, 14, 0, 0|
0, 22, 2, 0, 0, 26, 0, 0, 0, 10, 0, 11, 21, 12, 28, 15, 16, 0, 8, 0, 5, 17, 30, 0, 1, 0, 0, 23, 0, 9|
19, 0, 0, 3, 0, 0, 5, 23, 2, 0, 6, 0, 30, 0, 9, 7, 4, 10, 11, 8, 21, 27, 0, 0, 0, 17, 0, 22, 0, 28|
1, 29, 5, 8, 0, 0, 0, 25, 23, 12, 26, 10, 19, 0, 0, 13, 0, 28, 0, 0, 7, 24, 9, 0, 0, 3, 6, 0, 21, 0|
23, 15, 0, 28, 0, 14, 21, 0, 26, 29, 0, 20, 7, 0, 11, 6, 0, 0, 25, 0, 9, 30, 0, 0, 0, 2, 5, 10, 0, 22|
0, 0, 10, 1, 0, 18, 30, 0, 0, 0, 7, 0, 0, 26, 0, 27, 0, 19, 28, 3, 0, 0, 0, 8, 22, 12, 21, 17, 15, 25|
12, 0, 3, 22, 29, 16, 15, 0, 0, 0, 19, 9, 8, 27, 17, 25, 26, 0, 14, 0, 13, 0, 0, 0, 0, 0, 1, 2, 0, 24|
0, 0, 4, 29, 28, 3, 2, 0, 12, 6, 0, 0, 0, 0, 0, 19, 30, 11, 0, 1, 20, 0, 0, 15, 18, 21, 27, 0, 10, 14|
11, 1, 0, 16, 20, 28, 0, 13, 0, 14, 5, 0, 6, 8, 0, 10, 15, 0, 29, 0, 3, 12, 0, 26, 0, 0, 0, 9, 7, 0|
4, 28, 30, 18, 0, 0, 26, 15, 0, 0, 24, 1, 0, 10, 2, 9, 7, 17, 13, 22, 0, 0, 0, 3, 0, 20, 0, 0, 0, 29|
0, 0, 0, 6, 0, 0, 3, 0, 11, 0, 10, 13, 0, 28, 1, 0, 20, 5, 15, 16, 14, 0, 0, 17, 23, 18, 0, 24, 30, 0|
16, 19, 0, 0, 18, 11, 14, 28, 0, 0, 0, 26, 25, 0, 0, 0, 27, 0, 17, 0, 12, 9, 8, 0, 0, 15, 3, 30, 2, 0|
0, 7, 15, 0, 4, 17, 8, 16, 0, 9, 18, 6, 0, 0, 21, 0, 29, 13, 0, 14, 10, 0, 19, 11, 24, 27, 0, 0, 0, 0|];
